4118,9589
6222,4389
1634,5767
6530,5616
741,5948
705,145
2143,1005
7181,7078
5048,1208
1062,5833
1375,5317
5348,1824
1388,9321
5690,5376
2742,2287
1283,2624
4370,3511
2214,6319
1214,6120
9359,7956
2059,5161
1717,4275
890,7731
4443,9044
7569,5765
2741,3803
5102,1240
2229,7402
3654,6473
7740,2632
1015,5382
5005,4489
2496,1379
5660,9541
6278,9887
3076,270
9675,5277
6569,2404
3075,1884
4640,1056
2633,3585
9257,7018
7749,1989
1043,1882
1146,2678
104,6198
4256,6199
4856,1338
5225,7981
8785,8405
6002,7388
3338,3723
7046,4173
1050,6596
2274,5333
4703,7309
6972,8210
4157,1901
1100,7639
9768,5095
9302,970
649,2227
3458,8388
5270,1244
6522,1259
4840,1386
7566,1255
4845,8435
431,8444
6339,8662
8471,712
589,4165
4574,4736
385,6165
6135,7795

17356
18999
15316
15999
13018
19000
16853
17910
16605
